c 
c G(k,n,p) graph
c graph gen seed     : 6663
c number of vertices : 70
c max number of edges: 1225
c number of classes  : 2
c edge density       : 0.100000
c edge probability   : 0.200000
c data structure     : sparse
c
c           Graph Stats
c number of vertices  : 70
c nonisolated vertices: 70
c number of edges     : 254
c edge density        : 0.105176
c max degree          : 13
c avg degree          : 7.26
c min degree          : 3
p col 70 254
e 1 69
e 1 66
e 1 26
e 1 24
e 1 23
e 2 59
e 2 55
e 2 18
e 2 14
e 2 12
e 3 69
e 3 66
e 3 64
e 3 63
e 3 46
e 3 45
e 3 28
e 3 21
e 3 20
e 3 17
e 4 58
e 4 49
e 4 40
e 4 11
e 4 9
e 4 8
e 4 7
e 4 6
e 5 68
e 5 57
e 5 56
e 5 52
e 5 51
e 5 47
e 5 39
e 5 37
e 5 25
e 5 11
e 6 70
e 6 66
e 6 61
e 6 26
e 6 22
e 7 69
e 7 66
e 7 46
e 7 43
e 7 26
e 7 20
e 8 69
e 8 66
e 8 46
e 8 41
e 8 30
e 8 28
e 8 26
e 8 22
e 9 64
e 9 63
e 9 55
e 9 54
e 9 48
e 9 45
e 9 44
e 9 28
e 9 20
e 10 70
e 10 63
e 10 59
e 10 54
e 10 48
e 10 44
e 10 41
e 10 30
e 10 26
e 10 23
e 10 21
e 10 14
e 11 70
e 11 69
e 11 66
e 11 61
e 11 55
e 11 43
e 11 38
e 11 24
e 11 18
e 11 12
e 12 67
e 12 65
e 12 53
e 12 52
e 12 36
e 12 34
e 12 25
e 12 19
e 13 64
e 13 61
e 13 48
e 13 26
e 13 20
e 14 68
e 14 67
e 14 60
e 14 49
e 14 47
e 14 15
e 15 69
e 15 59
e 15 45
e 15 41
e 15 18
e 16 65
e 16 60
e 16 49
e 16 47
e 16 37
e 16 19
e 17 67
e 17 62
e 17 52
e 17 51
e 17 42
e 18 68
e 18 65
e 18 62
e 18 56
e 18 50
e 18 25
e 19 64
e 19 63
e 19 54
e 19 48
e 19 31
e 19 28
e 20 52
e 20 36
e 21 60
e 21 50
e 21 40
e 21 34
e 21 27
e 21 25
e 22 60
e 22 56
e 22 35
e 23 57
e 23 52
e 23 42
e 24 60
e 24 39
e 24 36
e 24 32
e 24 27
e 25 70
e 25 41
e 25 38
e 25 33
e 25 28
e 25 26
e 26 67
e 26 65
e 26 47
e 26 40
e 27 63
e 27 59
e 27 54
e 27 48
e 27 44
e 27 43
e 27 38
e 27 31
e 28 62
e 28 40
e 28 34
e 29 59
e 29 54
e 29 46
e 29 44
e 29 41
e 30 40
e 30 37
e 30 35
e 30 34
e 31 58
e 31 57
e 31 49
e 32 66
e 32 48
e 32 43
e 33 67
e 33 62
e 33 58
e 33 40
e 35 64
e 35 63
e 35 46
e 36 54
e 36 45
e 36 38
e 37 64
e 37 63
e 37 55
e 38 65
e 38 51
e 38 49
e 39 70
e 39 64
e 39 54
e 39 44
e 41 62
e 41 57
e 42 70
e 42 66
e 42 55
e 42 45
e 42 44
e 42 43
e 43 68
e 43 51
e 43 49
e 44 65
e 44 51
e 44 49
e 45 68
e 45 65
e 45 62
e 45 56
e 45 53
e 46 67
e 46 62
e 46 58
e 46 51
e 47 70
e 47 59
e 48 60
e 48 52
e 48 51
e 49 64
e 49 61
e 49 55
e 50 70
e 50 69
e 50 66
e 50 64
e 51 55
e 52 66
e 53 66
e 55 68
e 57 66
e 59 67
e 60 66
e 60 64
e 62 70
